[VALIDATOR STDOUT]
Checking plan: /home/jfan5/Safety-gen/runs/benchmark/optic/grid_20260129_163214/grid/optic_results/grid_x11_y11_sh3_k6_l6_s11001.plan
Plan executed successfully - checking goal
Plan valid
Final value: 141 

Successful plans:
Value: 141
 /home/jfan5/Safety-gen/runs/benchmark/optic/grid_20260129_163214/grid/optic_results/grid_x11_y11_sh3_k6_l6_s11001.plan 141
